100
1000
201
201
200
199
198
197
196
195
195
194
190
188
187
184
182
181
181
180
179
177
172
171
169
165
165
163
158
154
154
153
153
148
148
144
142
138
137
131
129
125
123
122
118
117
117
116
115
113
109
105
105
104
103
101
100
96
89
87
86
84
84
82
78
78
77
76
72
71
71
69
69
69
67
66
64
64
63
62
58
56
53
52
50
49
45
45
40
39
37
37
33
28
25
24
22
22
16
15
15
13
